
Gurobi 10.0.3 (linux64, gurobi_cl) logging started Thu Nov  2 11:37:11 2023

Set parameter Username
Set parameter TimeLimit to value 3600
Set parameter LogFile to value "RCPSP_780.log"
Set parameter Threads to value 32
Academic license - for non-commercial use only - expires 2024-10-30
Using license file /home/jrivera6/gurobi-licenses/v1003/compute-0-35/gurobi.lic

Gurobi Optimizer version 10.0.3 build v10.0.3rc0 (linux64)
Copyright (c) 2023, Gurobi Optimization, LLC

Read MPS format model from file RCPSP_780.mps
Reading time = 0.06 seconds
RCPSP_780: 19643 rows, 7750 columns, 71917 nonzeros

CPU model: Intel(R) Xeon(R) Gold 6130 CPU @ 2.10GHz, instruction set [SSE2|AVX|AVX2|AVX512]
Thread count: 32 physical cores, 32 logical processors, using up to 32 threads

Optimize a model with 19643 rows, 7750 columns and 71917 nonzeros
Model fingerprint: 0x48c659ee
Variable types: 62 continuous, 7688 integer (7688 binary)
Coefficient statistics:
  Matrix range     [1e+00, 4e+02]
  Objective range  [1e+00, 1e+00]
  Bounds range     [1e+00, 1e+00]
  RHS range        [1e+00, 4e+02]
Presolve removed 7931 rows and 2869 columns
Presolve time: 3.34s
Presolved: 11712 rows, 4881 columns, 44718 nonzeros
Variable types: 61 continuous, 4820 integer (4820 binary)

Root relaxation: objective 8.100000e+01, 1587 iterations, 0.04 seconds (0.01 work units)

    Nodes    |    Current Node    |     Objective Bounds      |     Work
 Expl Unexpl |  Obj  Depth IntInf | Incumbent    BestBd   Gap | It/Node Time

     0     0   81.00000    0  161          -   81.00000      -     -    4s
     0     0   81.00000    0  406          -   81.00000      -     -    7s
     0     0   81.00000    0  353          -   81.00000      -     -    7s
     0     0   81.00000    0  103          -   81.00000      -     -    9s
     0     0   81.00000    0  147          -   81.00000      -     -   10s
     0     0   81.00000    0   97          -   81.00000      -     -   11s
     0     0   81.00000    0  171          -   81.00000      -     -   12s
     0     0   81.00000    0  242          -   81.00000      -     -   13s
     0     0   81.00000    0  231          -   81.00000      -     -   13s
     0     0   81.00000    0  157          -   81.00000      -     -   15s
H    0     0                     362.0000000   81.00000  77.6%     -   15s
     0     0   81.00000    0   69  362.00000   81.00000  77.6%     -   15s
     0     2   81.00000    0   69  362.00000   81.00000  77.6%     -   22s
     7    16   81.00000    3  214  362.00000   81.00000  77.6%   421   26s
    31    56   81.00000    5  225  362.00000   81.00000  77.6%   314   84s
H   32    56                     343.0000000   81.00000  76.4%   304   84s
H   40    56                     329.0000000   81.00000  75.4%   262   84s
H   42    56                     246.0000000   81.00000  67.1%   256   84s
    61    87   81.00000    6  243  246.00000   81.00000  67.1%   240   87s
H   93   118                     199.0000000   81.00000  59.3%   218  145s
H   94   118                     185.0000000   81.00000  56.2%   224  145s
H   95   118                     180.0000000   81.00000  55.0%   222  145s
H   96   118                     178.0000000   81.00000  54.5%   220  145s
H  113   118                     175.0000000   81.00000  53.7%   203  145s
H  121   118                     172.0000000   81.00000  52.9%   190  145s
   125   149   81.00000    8  260  172.00000   81.00000  52.9%   189  178s
   157   179   81.00000    9  263  172.00000   81.00000  52.9%   158  180s
   189   234   81.00000   10   53  172.00000   81.00000  52.9%   152  187s
   367   407   81.00000   15   79  172.00000   81.00000  52.9%   100  191s
   597   632   81.00000   21  116  172.00000   81.00000  52.9%  72.3  196s
   686   739   81.00000   23  118  172.00000   81.00000  52.9%  67.5  203s
   956  1004   81.00000   26  204  172.00000   81.00000  52.9%  56.5  205s
H 1257  1152                     152.0000000   81.00000  46.7%  48.6  224s
H 1258  1152                     149.0000000   81.00000  45.6%  48.7  224s
H 1271  1152                     148.0000000   81.00000  45.3%  48.6  224s
H 1284  1152                     147.0000000   81.00000  44.9%  48.7  224s
  1294  1288   81.00000   29  132  147.00000   81.00000  44.9%  49.2  226s
  1463  1434   81.00000   30  132  147.00000   81.00000  44.9%  46.9  232s
  1630  1541   81.00000   33  144  147.00000   81.00000  44.9%  47.6  235s
  1768  1679   81.00000   37  188  147.00000   81.00000  44.9%  48.9  244s
  1938  1852   81.00000   38  144  147.00000   81.00000  44.9%  51.7  252s
  2132  2093   81.00000   39  144  147.00000   81.00000  44.9%  53.0  261s
  2423  2367   81.00000   41  178  147.00000   81.00000  44.9%  52.3  266s
H 2767  2387                     141.0000000   81.00000  42.6%  50.7  421s
H 2768  2334                     130.0000000   81.00000  37.7%  50.7  421s
H 2782  2283                     127.0000000   81.00000  36.2%  51.5  421s
  2799  2640   81.00000   43  174  127.00000   81.00000  36.2%  51.8  429s
H 2885  2113                      98.0000000   81.00000  17.3%  51.3  429s
  3164  2113     cutoff   53        98.00000   81.00000  17.3%  49.3  430s
H 3202  2113                      97.0000000   81.00000  16.5%  49.9  430s
  3218  2045   81.00000   51  117   97.00000   81.00000  16.5%  49.8  438s
  3671  2222   86.00000   62  212   97.00000   81.00000  16.5%  49.8  445s
H 3809  2109                      95.0000000   81.00000  14.7%  51.8  445s
H 3869  2109                      91.0000000   81.00000  11.0%  51.5  445s
  4109  1603   81.00000   15   69   91.00000   81.00000  11.0%  50.8  488s
  4112  1605   90.00000   42  104   91.00000   81.00000  11.0%  50.8  491s
H 4113  1525                      90.0000000   81.00000  10.0%  50.8  493s
  4115  1526   90.00000   44  133   90.00000   81.00000  10.0%  50.7  495s
  4118  1528   81.00000   37   53   90.00000   81.00000  10.0%  50.7  502s
  4120  1529   83.00000   50   36   90.00000   81.00000  10.0%  50.7  506s
H 4122  1454                      89.0000000   81.00000  8.99%  50.7  510s
  4127  1457   84.00000   39   39   89.00000   81.00000  8.99%  50.6  515s
H 4127  1384                      88.0000000   81.00000  7.95%  50.6  517s
H 4128  1318                      87.0000000   81.00000  6.90%  59.7  522s
  4131  1323   81.00000   14   87   87.00000   81.00000  6.90%  59.9  525s
  4143  1342   81.00000   16   85   87.00000   81.00000  6.90%  59.9  530s
  4159  1362   81.00000   17   87   87.00000   81.00000  6.90%  60.0  535s
H 4173  1291                      84.0000000   81.00000  3.57%  59.9  535s
H 4224  1255                      83.0000000   81.00000  2.41%  59.8  661s
H 4232  1192                      82.9999990   81.00000  2.41%  59.8  661s
H 4234  1134                      82.0000000   81.00000  1.22%  59.8  661s
  4256  1113     cutoff   19        82.00000   81.00000  1.22%  59.7  697s
  4288  1076     cutoff   20        82.00000   81.00000  1.22%  59.6  703s
  4340  1059 infeasible   23        82.00000   81.00000  1.22%  60.4  710s
  4383  1081   81.00000   23   27   82.00000   81.00000  1.22%  63.7  716s
  4432  1086   81.00000   25   28   82.00000   81.00000  1.22%  65.9  722s
  4483  1100   81.00000   27   52   82.00000   81.00000  1.22%  68.1  732s
  4538  1111   81.00000   28   52   82.00000   81.00000  1.22%  69.5  737s
  4601  1124   81.00000   30   50   82.00000   81.00000  1.22%  69.7  741s
  4672  1149     cutoff   31        82.00000   81.00000  1.22%  69.3  750s
  4801  1190   81.00000   31   72   82.00000   81.00000  1.22%  71.0  766s
  4994  1266   81.00000   26  211   82.00000   81.00000  1.22%  75.5  784s
  5322  1304   81.00000   34   22   82.00000   81.00000  1.22%  81.8  807s
  5909  1282     cutoff   39        82.00000   81.00000  1.22%  84.4  837s
  6966  1042     cutoff   57        82.00000   81.00000  1.22%  85.2  870s
  7901  1238   81.00000   27  121   82.00000   81.00000  1.22%  89.6  908s
  9291  1690   81.00000   43   92   82.00000   81.00000  1.22%  90.9  955s
 11293  2171 infeasible   67        82.00000   81.00000  1.22%  90.1 1015s
*11462  2171              75      81.0000000   81.00000  0.00%  89.1 1015s

Cutting planes:
  Gomory: 22
  Cover: 36
  Implied bound: 88
  Clique: 38
  MIR: 71
  StrongCG: 1
  Flow cover: 188
  Zero half: 1
  RLT: 25
  Relax-and-lift: 193

Explored 15022 nodes (1233783 simplex iterations) in 1016.06 seconds (46.53 work units)
Thread count was 32 (of 32 available processors)

Solution count 10: 81 82 83 ... 91

Optimal solution found (tolerance 1.00e-04)
Best objective 8.100000000000e+01, best bound 8.100000000000e+01, gap 0.0000%

Wrote result file 'RCPSP_780.sol'

